(set-logic QF_NRA)
(set-info :source |Benchmarks generated from hycomp (https://es-static.fbk.eu/tools/hycomp/). BMC instances of non-linear hybrid automata taken from: Alessandro Cimatti, Sergio Mover, Stefano Tonetta, A quantifier-free SMT encoding of non-linear hybrid automata, FMCAD 2012 and Alessandro Cimatti, Sergio Mover, Stefano Tonetta, Quantier-free encoding of invariants for Hybrid Systems, Formal Methods in System Design. This instance solves a BMC problem of depth 4 and uses the encoding obtained with quantifier elimination using qepcad encoding. Contacts: Sergio Mover (mover@fbk.eu), Stefano Tonetta (tonettas@fbk.eu), Alessandro Cimatti (cimatti@fbk.eu).|)
(set-info :smt-lib-version 2.0)
(set-info :category "industrial")
(set-info :status unsat)
;; MathSAT API call trace
;; generated on Mon Mar 19 10:50:27 2012
(declare-fun b.counter.0__AT0 () Bool)
(declare-fun b.counter.2__AT0 () Bool)
(declare-fun b.counter.1__AT0 () Bool)
(declare-fun b.counter.1__AT1 () Bool)
(declare-fun b.time__AT2 () Real)
(declare-fun b.counter.2__AT1 () Bool)
(declare-fun b.delta__AT2 () Real)
(declare-fun b.EVENT.0__AT2 () Bool)
(declare-fun speed_loss__AT0 () Real)
(declare-fun b.y__AT2 () Real)
(declare-fun b.EVENT.1__AT2 () Bool)
(declare-fun b.speed_y__AT0 () Real)
(declare-fun b.event_is_timed__AT1 () Bool)
(declare-fun b.counter.0__AT2 () Bool)
(declare-fun b.event_is_timed__AT0 () Bool)
(declare-fun b.counter.1__AT2 () Bool)
(declare-fun b.counter.3__AT1 () Bool)
(declare-fun b.delta__AT0 () Real)
(declare-fun b.y__AT1 () Real)
(declare-fun b.event_is_timed__AT4 () Bool)
(declare-fun b.event_is_timed__AT3 () Bool)
(declare-fun b.counter.0__AT1 () Bool)
(declare-fun b.counter.3__AT0 () Bool)
(declare-fun b.speed_y__AT2 () Real)
(declare-fun b.y__AT4 () Real)
(declare-fun b.y__AT3 () Real)
(declare-fun b.delta__AT1 () Real)
(declare-fun b.counter.2__AT2 () Bool)
(declare-fun b.counter.0__AT4 () Bool)
(declare-fun b.counter.0__AT3 () Bool)
(declare-fun b.EVENT.0__AT1 () Bool)
(declare-fun b.EVENT.1__AT0 () Bool)
(declare-fun b.counter.3__AT2 () Bool)
(declare-fun b.counter.1__AT4 () Bool)
(declare-fun b.time__AT3 () Real)
(declare-fun b.counter.1__AT3 () Bool)
(declare-fun b.EVENT.1__AT1 () Bool)
(declare-fun b.delta__AT4 () Real)
(declare-fun b.EVENT.0__AT0 () Bool)
(declare-fun b.counter.2__AT4 () Bool)
(declare-fun b.delta__AT3 () Real)
(declare-fun b.counter.2__AT3 () Bool)
(declare-fun b.time__AT1 () Real)
(declare-fun b.EVENT.0__AT4 () Bool)
(declare-fun b.time__AT4 () Real)
(declare-fun b.counter.3__AT4 () Bool)
(declare-fun b.EVENT.0__AT3 () Bool)
(declare-fun b.counter.3__AT3 () Bool)
(declare-fun b.speed_y__AT1 () Real)
(declare-fun b.EVENT.1__AT4 () Bool)
(declare-fun b.EVENT.1__AT3 () Bool)
(declare-fun b.time__AT0 () Real)
(declare-fun b.speed_y__AT4 () Real)
(declare-fun b.speed_y__AT3 () Real)
(declare-fun b.event_is_timed__AT2 () Bool)
(declare-fun b.y__AT0 () Real)
(assert (let ((.def_740 (* 49.0 b.delta__AT4)))
(let ((.def_741 (* b.delta__AT4 .def_740)))
(let ((.def_742 (* (- 1.0) .def_741)))
(let ((.def_738 (* 10.0 b.delta__AT4)))
(let ((.def_739 (* b.speed_y__AT4 .def_738)))
(let ((.def_743 (+ .def_739 .def_742)))
(let ((.def_744 (* 10.0 b.y__AT4)))
(let ((.def_746 (+ .def_744 .def_743)))
(let ((.def_747 (<= 0.0 .def_746)))
(let ((.def_722 (<= 0.0 b.y__AT4)))
(let ((.def_748 (and .def_722 .def_747)))
(let ((.def_736 (<= 0.0 b.delta__AT4)))
(let ((.def_737 (not .def_736)))
(let ((.def_749 (or .def_737 .def_748)))
(let ((.def_719 (not b.EVENT.0__AT4)))
(let ((.def_717 (not b.EVENT.1__AT4)))
(let ((.def_733 (and .def_717 .def_719)))
(let ((.def_734 (not .def_733)))
(let ((.def_750 (or .def_734 .def_749)))
(let ((.def_448 (not b.counter.0__AT3)))
(let ((.def_436 (not b.counter.1__AT3)))
(let ((.def_726 (and .def_436 .def_448)))
(let ((.def_729 (or b.counter.3__AT3 .def_726)))
(let ((.def_443 (not b.counter.2__AT3)))
(let ((.def_727 (and .def_443 .def_726)))
(let ((.def_458 (not b.counter.3__AT3)))
(let ((.def_728 (or .def_458 .def_727)))
(let ((.def_730 (and .def_728 .def_729)))
(let ((.def_60 (<= speed_loss__AT0 (/ 1 2))))
(let ((.def_57 (<= (/ 1 10) speed_loss__AT0)))
(let ((.def_61 (and .def_57 .def_60)))
(let ((.def_723 (and .def_61 .def_722)))
(let ((.def_720 (or .def_717 .def_719)))
(let ((.def_6 (not b.counter.0__AT4)))
(let ((.def_4 (not b.counter.1__AT4)))
(let ((.def_710 (or .def_4 .def_6)))
(let ((.def_714 (or b.counter.3__AT4 .def_710)))
(let ((.def_711 (or b.counter.2__AT4 .def_710)))
(let ((.def_9 (not b.counter.2__AT4)))
(let ((.def_709 (or .def_6 .def_9)))
(let ((.def_712 (and .def_709 .def_711)))
(let ((.def_12 (not b.counter.3__AT4)))
(let ((.def_713 (or .def_12 .def_712)))
(let ((.def_715 (and .def_713 .def_714)))
(let ((.def_721 (and .def_715 .def_720)))
(let ((.def_724 (and .def_721 .def_723)))
(let ((.def_577 (<= 0.0 b.delta__AT3)))
(let ((.def_560 (not b.EVENT.0__AT3)))
(let ((.def_558 (not b.EVENT.1__AT3)))
(let ((.def_574 (and .def_558 .def_560)))
(let ((.def_575 (not .def_574)))
(let ((.def_705 (or .def_575 .def_577)))
(let ((.def_706 (or b.EVENT.1__AT3 .def_705)))
(let ((.def_639 (= b.counter.0__AT4 b.counter.0__AT3)))
(let ((.def_637 (= b.counter.1__AT4 b.counter.1__AT3)))
(let ((.def_635 (= b.counter.2__AT4 b.counter.2__AT3)))
(let ((.def_634 (= b.counter.3__AT4 b.counter.3__AT3)))
(let ((.def_636 (and .def_634 .def_635)))
(let ((.def_638 (and .def_636 .def_637)))
(let ((.def_640 (and .def_638 .def_639)))
(let ((.def_702 (or .def_575 .def_640)))
(let ((.def_703 (or b.EVENT.1__AT3 .def_702)))
(let ((.def_690 (* (- 5.0) b.speed_y__AT4)))
(let ((.def_691 (* (- 49.0) b.delta__AT3)))
(let ((.def_695 (+ .def_691 .def_690)))
(let ((.def_693 (* 5.0 b.speed_y__AT3)))
(let ((.def_696 (+ .def_693 .def_695)))
(let ((.def_697 (= .def_696 0.0 )))
(let ((.def_681 (* b.speed_y__AT3 b.delta__AT3)))
(let ((.def_682 (* 10.0 .def_681)))
(let ((.def_679 (* b.delta__AT3 b.delta__AT3)))
(let ((.def_680 (* (- 49.0) .def_679)))
(let ((.def_683 (+ .def_680 .def_682)))
(let ((.def_684 (* (- 10.0) b.y__AT4)))
(let ((.def_687 (+ .def_684 .def_683)))
(let ((.def_585 (* 10.0 b.y__AT3)))
(let ((.def_688 (+ .def_585 .def_687)))
(let ((.def_689 (= .def_688 0.0 )))
(let ((.def_698 (and .def_689 .def_697)))
(let ((.def_699 (or .def_575 .def_698)))
(let ((.def_645 (= b.y__AT3 b.y__AT4)))
(let ((.def_633 (= b.speed_y__AT3 b.speed_y__AT4)))
(let ((.def_676 (and .def_633 .def_645)))
(let ((.def_673 (= b.delta__AT3 0.0 )))
(let ((.def_674 (and .def_574 .def_673)))
(let ((.def_675 (not .def_674)))
(let ((.def_677 (or .def_675 .def_676)))
(let ((.def_678 (or b.EVENT.1__AT3 .def_677)))
(let ((.def_700 (and .def_678 .def_699)))
(let ((.def_655 (= b.time__AT3 b.time__AT4)))
(let ((.def_667 (and .def_645 .def_655)))
(let ((.def_668 (and .def_633 .def_667)))
(let ((.def_669 (and .def_640 .def_668)))
(let ((.def_670 (or .def_558 .def_669)))
(let ((.def_658 (* (- 1.0) b.time__AT4)))
(let ((.def_661 (+ b.delta__AT3 .def_658)))
(let ((.def_662 (+ b.time__AT3 .def_661)))
(let ((.def_663 (= .def_662 0.0 )))
(let ((.def_664 (or .def_575 .def_663)))
(let ((.def_665 (or b.EVENT.1__AT3 .def_664)))
(let ((.def_656 (or .def_574 .def_655)))
(let ((.def_657 (or b.EVENT.1__AT3 .def_656)))
(let ((.def_666 (and .def_657 .def_665)))
(let ((.def_671 (and .def_666 .def_670)))
(let ((.def_651 (= .def_575 b.event_is_timed__AT4)))
(let ((.def_649 (= b.event_is_timed__AT3 .def_574)))
(let ((.def_652 (and .def_649 .def_651)))
(let ((.def_641 (and .def_633 .def_640)))
(let ((.def_594 (<= 0.0 b.speed_y__AT3)))
(let ((.def_595 (not .def_594)))
(let ((.def_593 (= b.y__AT3 0.0 )))
(let ((.def_596 (and .def_593 .def_595)))
(let ((.def_642 (or .def_596 .def_641)))
(let ((.def_610 (or .def_6 b.counter.0__AT3)))
(let ((.def_609 (or b.counter.0__AT4 .def_448)))
(let ((.def_611 (and .def_609 .def_610)))
(let ((.def_612 (and .def_4 .def_611)))
(let ((.def_613 (or b.counter.1__AT3 .def_612)))
(let ((.def_608 (or b.counter.1__AT4 .def_436)))
(let ((.def_614 (and .def_608 .def_613)))
(let ((.def_625 (and .def_9 .def_614)))
(let ((.def_626 (or b.counter.2__AT3 .def_625)))
(let ((.def_620 (and .def_4 .def_448)))
(let ((.def_621 (or b.counter.1__AT3 .def_620)))
(let ((.def_622 (and .def_608 .def_621)))
(let ((.def_623 (and b.counter.2__AT4 .def_622)))
(let ((.def_624 (or .def_443 .def_623)))
(let ((.def_627 (and .def_624 .def_626)))
(let ((.def_628 (and b.counter.3__AT4 .def_627)))
(let ((.def_629 (or b.counter.3__AT3 .def_628)))
(let ((.def_615 (and b.counter.2__AT4 .def_614)))
(let ((.def_616 (or b.counter.2__AT3 .def_615)))
(let ((.def_604 (or b.counter.1__AT4 b.counter.1__AT3)))
(let ((.def_602 (and .def_4 b.counter.0__AT4)))
(let ((.def_603 (or .def_436 .def_602)))
(let ((.def_605 (and .def_603 .def_604)))
(let ((.def_606 (and .def_9 .def_605)))
(let ((.def_607 (or .def_443 .def_606)))
(let ((.def_617 (and .def_607 .def_616)))
(let ((.def_618 (and .def_12 .def_617)))
(let ((.def_619 (or .def_458 .def_618)))
(let ((.def_630 (and .def_619 .def_629)))
(let ((.def_598 (* (- 1.0) b.speed_y__AT3)))
(let ((.def_94 (* (- 1.0) speed_loss__AT0)))
(let ((.def_95 (+ 1.0 .def_94)))
(let ((.def_599 (* .def_95 .def_598)))
(let ((.def_601 (= .def_599 b.speed_y__AT4)))
(let ((.def_631 (and .def_601 .def_630)))
(let ((.def_597 (not .def_596)))
(let ((.def_632 (or .def_597 .def_631)))
(let ((.def_643 (and .def_632 .def_642)))
(let ((.def_646 (and .def_643 .def_645)))
(let ((.def_647 (or .def_574 .def_646)))
(let ((.def_648 (or b.EVENT.1__AT3 .def_647)))
(let ((.def_653 (and .def_648 .def_652)))
(let ((.def_672 (and .def_653 .def_671)))
(let ((.def_701 (and .def_672 .def_700)))
(let ((.def_704 (and .def_701 .def_703)))
(let ((.def_707 (and .def_704 .def_706)))
(let ((.def_708 (and .def_558 .def_707)))
(let ((.def_725 (and .def_708 .def_724)))
(let ((.def_731 (and .def_725 .def_730)))
(let ((.def_581 (* 49.0 b.delta__AT3)))
(let ((.def_582 (* b.delta__AT3 .def_581)))
(let ((.def_583 (* (- 1.0) .def_582)))
(let ((.def_579 (* 10.0 b.delta__AT3)))
(let ((.def_580 (* b.speed_y__AT3 .def_579)))
(let ((.def_584 (+ .def_580 .def_583)))
(let ((.def_587 (+ .def_585 .def_584)))
(let ((.def_588 (<= 0.0 .def_587)))
(let ((.def_563 (<= 0.0 b.y__AT3)))
(let ((.def_589 (and .def_563 .def_588)))
(let ((.def_578 (not .def_577)))
(let ((.def_590 (or .def_578 .def_589)))
(let ((.def_591 (or .def_575 .def_590)))
(let ((.def_281 (not b.counter.0__AT2)))
(let ((.def_269 (not b.counter.1__AT2)))
(let ((.def_567 (and .def_269 .def_281)))
(let ((.def_570 (or b.counter.3__AT2 .def_567)))
(let ((.def_276 (not b.counter.2__AT2)))
(let ((.def_568 (and .def_276 .def_567)))
(let ((.def_291 (not b.counter.3__AT2)))
(let ((.def_569 (or .def_291 .def_568)))
(let ((.def_571 (and .def_569 .def_570)))
(let ((.def_564 (and .def_61 .def_563)))
(let ((.def_561 (or .def_558 .def_560)))
(let ((.def_551 (or .def_436 .def_448)))
(let ((.def_555 (or b.counter.3__AT3 .def_551)))
(let ((.def_552 (or b.counter.2__AT3 .def_551)))
(let ((.def_550 (or .def_443 .def_448)))
(let ((.def_553 (and .def_550 .def_552)))
(let ((.def_554 (or .def_458 .def_553)))
(let ((.def_556 (and .def_554 .def_555)))
(let ((.def_562 (and .def_556 .def_561)))
(let ((.def_565 (and .def_562 .def_564)))
(let ((.def_410 (<= 0.0 b.delta__AT2)))
(let ((.def_393 (not b.EVENT.0__AT2)))
(let ((.def_391 (not b.EVENT.1__AT2)))
(let ((.def_407 (and .def_391 .def_393)))
(let ((.def_408 (not .def_407)))
(let ((.def_546 (or .def_408 .def_410)))
(let ((.def_547 (or b.EVENT.1__AT2 .def_546)))
(let ((.def_480 (= b.counter.0__AT2 b.counter.0__AT3)))
(let ((.def_478 (= b.counter.1__AT2 b.counter.1__AT3)))
(let ((.def_476 (= b.counter.2__AT2 b.counter.2__AT3)))
(let ((.def_475 (= b.counter.3__AT2 b.counter.3__AT3)))
(let ((.def_477 (and .def_475 .def_476)))
(let ((.def_479 (and .def_477 .def_478)))
(let ((.def_481 (and .def_479 .def_480)))
(let ((.def_543 (or .def_408 .def_481)))
(let ((.def_544 (or b.EVENT.1__AT2 .def_543)))
(let ((.def_531 (* (- 5.0) b.speed_y__AT3)))
(let ((.def_532 (* (- 49.0) b.delta__AT2)))
(let ((.def_536 (+ .def_532 .def_531)))
(let ((.def_534 (* 5.0 b.speed_y__AT2)))
(let ((.def_537 (+ .def_534 .def_536)))
(let ((.def_538 (= .def_537 0.0 )))
(let ((.def_522 (* b.speed_y__AT2 b.delta__AT2)))
(let ((.def_523 (* 10.0 .def_522)))
(let ((.def_520 (* b.delta__AT2 b.delta__AT2)))
(let ((.def_521 (* (- 49.0) .def_520)))
(let ((.def_524 (+ .def_521 .def_523)))
(let ((.def_525 (* (- 10.0) b.y__AT3)))
(let ((.def_528 (+ .def_525 .def_524)))
(let ((.def_418 (* 10.0 b.y__AT2)))
(let ((.def_529 (+ .def_418 .def_528)))
(let ((.def_530 (= .def_529 0.0 )))
(let ((.def_539 (and .def_530 .def_538)))
(let ((.def_540 (or .def_408 .def_539)))
(let ((.def_486 (= b.y__AT2 b.y__AT3)))
(let ((.def_474 (= b.speed_y__AT2 b.speed_y__AT3)))
(let ((.def_517 (and .def_474 .def_486)))
(let ((.def_514 (= b.delta__AT2 0.0 )))
(let ((.def_515 (and .def_407 .def_514)))
(let ((.def_516 (not .def_515)))
(let ((.def_518 (or .def_516 .def_517)))
(let ((.def_519 (or b.EVENT.1__AT2 .def_518)))
(let ((.def_541 (and .def_519 .def_540)))
(let ((.def_496 (= b.time__AT2 b.time__AT3)))
(let ((.def_508 (and .def_486 .def_496)))
(let ((.def_509 (and .def_474 .def_508)))
(let ((.def_510 (and .def_481 .def_509)))
(let ((.def_511 (or .def_391 .def_510)))
(let ((.def_499 (* (- 1.0) b.time__AT3)))
(let ((.def_502 (+ b.delta__AT2 .def_499)))
(let ((.def_503 (+ b.time__AT2 .def_502)))
(let ((.def_504 (= .def_503 0.0 )))
(let ((.def_505 (or .def_408 .def_504)))
(let ((.def_506 (or b.EVENT.1__AT2 .def_505)))
(let ((.def_497 (or .def_407 .def_496)))
(let ((.def_498 (or b.EVENT.1__AT2 .def_497)))
(let ((.def_507 (and .def_498 .def_506)))
(let ((.def_512 (and .def_507 .def_511)))
(let ((.def_492 (= .def_408 b.event_is_timed__AT3)))
(let ((.def_490 (= b.event_is_timed__AT2 .def_407)))
(let ((.def_493 (and .def_490 .def_492)))
(let ((.def_482 (and .def_474 .def_481)))
(let ((.def_427 (<= 0.0 b.speed_y__AT2)))
(let ((.def_428 (not .def_427)))
(let ((.def_426 (= b.y__AT2 0.0 )))
(let ((.def_429 (and .def_426 .def_428)))
(let ((.def_483 (or .def_429 .def_482)))
(let ((.def_449 (or b.counter.0__AT2 .def_448)))
(let ((.def_447 (or .def_281 b.counter.0__AT3)))
(let ((.def_450 (and .def_447 .def_449)))
(let ((.def_451 (and .def_436 .def_450)))
(let ((.def_452 (or b.counter.1__AT2 .def_451)))
(let ((.def_446 (or .def_269 b.counter.1__AT3)))
(let ((.def_453 (and .def_446 .def_452)))
(let ((.def_466 (and .def_443 .def_453)))
(let ((.def_467 (or b.counter.2__AT2 .def_466)))
(let ((.def_461 (and .def_281 .def_436)))
(let ((.def_462 (or b.counter.1__AT2 .def_461)))
(let ((.def_463 (and .def_446 .def_462)))
(let ((.def_464 (and b.counter.2__AT3 .def_463)))
(let ((.def_465 (or .def_276 .def_464)))
(let ((.def_468 (and .def_465 .def_467)))
(let ((.def_469 (and b.counter.3__AT3 .def_468)))
(let ((.def_470 (or b.counter.3__AT2 .def_469)))
(let ((.def_454 (and b.counter.2__AT3 .def_453)))
(let ((.def_455 (or b.counter.2__AT2 .def_454)))
(let ((.def_440 (or b.counter.1__AT2 b.counter.1__AT3)))
(let ((.def_438 (and .def_436 b.counter.0__AT3)))
(let ((.def_439 (or .def_269 .def_438)))
(let ((.def_441 (and .def_439 .def_440)))
(let ((.def_444 (and .def_441 .def_443)))
(let ((.def_445 (or .def_276 .def_444)))
(let ((.def_456 (and .def_445 .def_455)))
(let ((.def_459 (and .def_456 .def_458)))
(let ((.def_460 (or .def_291 .def_459)))
(let ((.def_471 (and .def_460 .def_470)))
(let ((.def_431 (* (- 1.0) b.speed_y__AT2)))
(let ((.def_432 (* .def_95 .def_431)))
(let ((.def_434 (= .def_432 b.speed_y__AT3)))
(let ((.def_472 (and .def_434 .def_471)))
(let ((.def_430 (not .def_429)))
(let ((.def_473 (or .def_430 .def_472)))
(let ((.def_484 (and .def_473 .def_483)))
(let ((.def_487 (and .def_484 .def_486)))
(let ((.def_488 (or .def_407 .def_487)))
(let ((.def_489 (or b.EVENT.1__AT2 .def_488)))
(let ((.def_494 (and .def_489 .def_493)))
(let ((.def_513 (and .def_494 .def_512)))
(let ((.def_542 (and .def_513 .def_541)))
(let ((.def_545 (and .def_542 .def_544)))
(let ((.def_548 (and .def_545 .def_547)))
(let ((.def_549 (and .def_391 .def_548)))
(let ((.def_566 (and .def_549 .def_565)))
(let ((.def_572 (and .def_566 .def_571)))
(let ((.def_414 (* 49.0 b.delta__AT2)))
(let ((.def_415 (* b.delta__AT2 .def_414)))
(let ((.def_416 (* (- 1.0) .def_415)))
(let ((.def_412 (* 10.0 b.delta__AT2)))
(let ((.def_413 (* b.speed_y__AT2 .def_412)))
(let ((.def_417 (+ .def_413 .def_416)))
(let ((.def_420 (+ .def_418 .def_417)))
(let ((.def_421 (<= 0.0 .def_420)))
(let ((.def_396 (<= 0.0 b.y__AT2)))
(let ((.def_422 (and .def_396 .def_421)))
(let ((.def_411 (not .def_410)))
(let ((.def_423 (or .def_411 .def_422)))
(let ((.def_424 (or .def_408 .def_423)))
(let ((.def_112 (not b.counter.0__AT1)))
(let ((.def_100 (not b.counter.1__AT1)))
(let ((.def_400 (and .def_100 .def_112)))
(let ((.def_403 (or b.counter.3__AT1 .def_400)))
(let ((.def_107 (not b.counter.2__AT1)))
(let ((.def_401 (and .def_107 .def_400)))
(let ((.def_122 (not b.counter.3__AT1)))
(let ((.def_402 (or .def_122 .def_401)))
(let ((.def_404 (and .def_402 .def_403)))
(let ((.def_397 (and .def_61 .def_396)))
(let ((.def_394 (or .def_391 .def_393)))
(let ((.def_384 (or .def_269 .def_281)))
(let ((.def_388 (or b.counter.3__AT2 .def_384)))
(let ((.def_385 (or b.counter.2__AT2 .def_384)))
(let ((.def_383 (or .def_276 .def_281)))
(let ((.def_386 (and .def_383 .def_385)))
(let ((.def_387 (or .def_291 .def_386)))
(let ((.def_389 (and .def_387 .def_388)))
(let ((.def_395 (and .def_389 .def_394)))
(let ((.def_398 (and .def_395 .def_397)))
(let ((.def_243 (<= 0.0 b.delta__AT1)))
(let ((.def_228 (not b.EVENT.0__AT1)))
(let ((.def_226 (not b.EVENT.1__AT1)))
(let ((.def_240 (and .def_226 .def_228)))
(let ((.def_241 (not .def_240)))
(let ((.def_379 (or .def_241 .def_243)))
(let ((.def_380 (or b.EVENT.1__AT1 .def_379)))
(let ((.def_313 (= b.counter.0__AT1 b.counter.0__AT2)))
(let ((.def_311 (= b.counter.1__AT1 b.counter.1__AT2)))
(let ((.def_309 (= b.counter.2__AT1 b.counter.2__AT2)))
(let ((.def_308 (= b.counter.3__AT1 b.counter.3__AT2)))
(let ((.def_310 (and .def_308 .def_309)))
(let ((.def_312 (and .def_310 .def_311)))
(let ((.def_314 (and .def_312 .def_313)))
(let ((.def_376 (or .def_241 .def_314)))
(let ((.def_377 (or b.EVENT.1__AT1 .def_376)))
(let ((.def_364 (* (- 5.0) b.speed_y__AT2)))
(let ((.def_365 (* (- 49.0) b.delta__AT1)))
(let ((.def_369 (+ .def_365 .def_364)))
(let ((.def_367 (* 5.0 b.speed_y__AT1)))
(let ((.def_370 (+ .def_367 .def_369)))
(let ((.def_371 (= .def_370 0.0 )))
(let ((.def_355 (* b.speed_y__AT1 b.delta__AT1)))
(let ((.def_356 (* 10.0 .def_355)))
(let ((.def_353 (* b.delta__AT1 b.delta__AT1)))
(let ((.def_354 (* (- 49.0) .def_353)))
(let ((.def_357 (+ .def_354 .def_356)))
(let ((.def_358 (* (- 10.0) b.y__AT2)))
(let ((.def_361 (+ .def_358 .def_357)))
(let ((.def_251 (* 10.0 b.y__AT1)))
(let ((.def_362 (+ .def_251 .def_361)))
(let ((.def_363 (= .def_362 0.0 )))
(let ((.def_372 (and .def_363 .def_371)))
(let ((.def_373 (or .def_241 .def_372)))
(let ((.def_319 (= b.y__AT1 b.y__AT2)))
(let ((.def_307 (= b.speed_y__AT1 b.speed_y__AT2)))
(let ((.def_350 (and .def_307 .def_319)))
(let ((.def_347 (= b.delta__AT1 0.0 )))
(let ((.def_348 (and .def_240 .def_347)))
(let ((.def_349 (not .def_348)))
(let ((.def_351 (or .def_349 .def_350)))
(let ((.def_352 (or b.EVENT.1__AT1 .def_351)))
(let ((.def_374 (and .def_352 .def_373)))
(let ((.def_329 (= b.time__AT1 b.time__AT2)))
(let ((.def_341 (and .def_319 .def_329)))
(let ((.def_342 (and .def_307 .def_341)))
(let ((.def_343 (and .def_314 .def_342)))
(let ((.def_344 (or .def_226 .def_343)))
(let ((.def_332 (* (- 1.0) b.time__AT2)))
(let ((.def_335 (+ b.delta__AT1 .def_332)))
(let ((.def_336 (+ b.time__AT1 .def_335)))
(let ((.def_337 (= .def_336 0.0 )))
(let ((.def_338 (or .def_241 .def_337)))
(let ((.def_339 (or b.EVENT.1__AT1 .def_338)))
(let ((.def_330 (or .def_240 .def_329)))
(let ((.def_331 (or b.EVENT.1__AT1 .def_330)))
(let ((.def_340 (and .def_331 .def_339)))
(let ((.def_345 (and .def_340 .def_344)))
(let ((.def_325 (= .def_241 b.event_is_timed__AT2)))
(let ((.def_323 (= b.event_is_timed__AT1 .def_240)))
(let ((.def_326 (and .def_323 .def_325)))
(let ((.def_315 (and .def_307 .def_314)))
(let ((.def_260 (<= 0.0 b.speed_y__AT1)))
(let ((.def_261 (not .def_260)))
(let ((.def_259 (= b.y__AT1 0.0 )))
(let ((.def_262 (and .def_259 .def_261)))
(let ((.def_316 (or .def_262 .def_315)))
(let ((.def_282 (or b.counter.0__AT1 .def_281)))
(let ((.def_280 (or .def_112 b.counter.0__AT2)))
(let ((.def_283 (and .def_280 .def_282)))
(let ((.def_284 (and .def_269 .def_283)))
(let ((.def_285 (or b.counter.1__AT1 .def_284)))
(let ((.def_279 (or .def_100 b.counter.1__AT2)))
(let ((.def_286 (and .def_279 .def_285)))
(let ((.def_299 (and .def_276 .def_286)))
(let ((.def_300 (or b.counter.2__AT1 .def_299)))
(let ((.def_294 (and .def_112 .def_269)))
(let ((.def_295 (or b.counter.1__AT1 .def_294)))
(let ((.def_296 (and .def_279 .def_295)))
(let ((.def_297 (and b.counter.2__AT2 .def_296)))
(let ((.def_298 (or .def_107 .def_297)))
(let ((.def_301 (and .def_298 .def_300)))
(let ((.def_302 (and b.counter.3__AT2 .def_301)))
(let ((.def_303 (or b.counter.3__AT1 .def_302)))
(let ((.def_287 (and b.counter.2__AT2 .def_286)))
(let ((.def_288 (or b.counter.2__AT1 .def_287)))
(let ((.def_273 (or b.counter.1__AT1 b.counter.1__AT2)))
(let ((.def_271 (and .def_269 b.counter.0__AT2)))
(let ((.def_272 (or .def_100 .def_271)))
(let ((.def_274 (and .def_272 .def_273)))
(let ((.def_277 (and .def_274 .def_276)))
(let ((.def_278 (or .def_107 .def_277)))
(let ((.def_289 (and .def_278 .def_288)))
(let ((.def_292 (and .def_289 .def_291)))
(let ((.def_293 (or .def_122 .def_292)))
(let ((.def_304 (and .def_293 .def_303)))
(let ((.def_264 (* (- 1.0) b.speed_y__AT1)))
(let ((.def_265 (* .def_95 .def_264)))
(let ((.def_267 (= .def_265 b.speed_y__AT2)))
(let ((.def_305 (and .def_267 .def_304)))
(let ((.def_263 (not .def_262)))
(let ((.def_306 (or .def_263 .def_305)))
(let ((.def_317 (and .def_306 .def_316)))
(let ((.def_320 (and .def_317 .def_319)))
(let ((.def_321 (or .def_240 .def_320)))
(let ((.def_322 (or b.EVENT.1__AT1 .def_321)))
(let ((.def_327 (and .def_322 .def_326)))
(let ((.def_346 (and .def_327 .def_345)))
(let ((.def_375 (and .def_346 .def_374)))
(let ((.def_378 (and .def_375 .def_377)))
(let ((.def_381 (and .def_378 .def_380)))
(let ((.def_382 (and .def_226 .def_381)))
(let ((.def_399 (and .def_382 .def_398)))
(let ((.def_405 (and .def_399 .def_404)))
(let ((.def_247 (* 49.0 b.delta__AT1)))
(let ((.def_248 (* b.delta__AT1 .def_247)))
(let ((.def_249 (* (- 1.0) .def_248)))
(let ((.def_245 (* 10.0 b.delta__AT1)))
(let ((.def_246 (* b.speed_y__AT1 .def_245)))
(let ((.def_250 (+ .def_246 .def_249)))
(let ((.def_253 (+ .def_251 .def_250)))
(let ((.def_254 (<= 0.0 .def_253)))
(let ((.def_231 (<= 0.0 b.y__AT1)))
(let ((.def_255 (and .def_231 .def_254)))
(let ((.def_244 (not .def_243)))
(let ((.def_256 (or .def_244 .def_255)))
(let ((.def_257 (or .def_241 .def_256)))
(let ((.def_32 (not b.counter.0__AT0)))
(let ((.def_30 (not b.counter.1__AT0)))
(let ((.def_33 (and .def_30 .def_32)))
(let ((.def_236 (or .def_33 b.counter.3__AT0)))
(let ((.def_38 (not b.counter.3__AT0)))
(let ((.def_35 (not b.counter.2__AT0)))
(let ((.def_36 (and .def_33 .def_35)))
(let ((.def_235 (or .def_36 .def_38)))
(let ((.def_237 (and .def_235 .def_236)))
(let ((.def_232 (and .def_61 .def_231)))
(let ((.def_229 (or .def_226 .def_228)))
(let ((.def_219 (or .def_100 .def_112)))
(let ((.def_223 (or b.counter.3__AT1 .def_219)))
(let ((.def_220 (or b.counter.2__AT1 .def_219)))
(let ((.def_218 (or .def_107 .def_112)))
(let ((.def_221 (and .def_218 .def_220)))
(let ((.def_222 (or .def_122 .def_221)))
(let ((.def_224 (and .def_222 .def_223)))
(let ((.def_230 (and .def_224 .def_229)))
(let ((.def_233 (and .def_230 .def_232)))
(let ((.def_70 (<= 0.0 b.delta__AT0)))
(let ((.def_51 (not b.EVENT.0__AT0)))
(let ((.def_49 (not b.EVENT.1__AT0)))
(let ((.def_67 (and .def_49 .def_51)))
(let ((.def_68 (not .def_67)))
(let ((.def_214 (or .def_68 .def_70)))
(let ((.def_215 (or b.EVENT.1__AT0 .def_214)))
(let ((.def_144 (= b.counter.0__AT0 b.counter.0__AT1)))
(let ((.def_142 (= b.counter.1__AT0 b.counter.1__AT1)))
(let ((.def_140 (= b.counter.2__AT0 b.counter.2__AT1)))
(let ((.def_139 (= b.counter.3__AT0 b.counter.3__AT1)))
(let ((.def_141 (and .def_139 .def_140)))
(let ((.def_143 (and .def_141 .def_142)))
(let ((.def_145 (and .def_143 .def_144)))
(let ((.def_211 (or .def_68 .def_145)))
(let ((.def_212 (or b.EVENT.1__AT0 .def_211)))
(let ((.def_199 (* (- 5.0) b.speed_y__AT1)))
(let ((.def_200 (* (- 49.0) b.delta__AT0)))
(let ((.def_204 (+ .def_200 .def_199)))
(let ((.def_202 (* 5.0 b.speed_y__AT0)))
(let ((.def_205 (+ .def_202 .def_204)))
(let ((.def_206 (= .def_205 0.0 )))
(let ((.def_187 (* b.speed_y__AT0 b.delta__AT0)))
(let ((.def_188 (* 10.0 .def_187)))
(let ((.def_184 (* b.delta__AT0 b.delta__AT0)))
(let ((.def_186 (* (- 49.0) .def_184)))
(let ((.def_189 (+ .def_186 .def_188)))
(let ((.def_191 (* (- 10.0) b.y__AT1)))
(let ((.def_194 (+ .def_191 .def_189)))
(let ((.def_80 (* 10.0 b.y__AT0)))
(let ((.def_195 (+ .def_80 .def_194)))
(let ((.def_196 (= .def_195 0.0 )))
(let ((.def_207 (and .def_196 .def_206)))
(let ((.def_208 (or .def_68 .def_207)))
(let ((.def_150 (= b.y__AT0 b.y__AT1)))
(let ((.def_138 (= b.speed_y__AT0 b.speed_y__AT1)))
(let ((.def_181 (and .def_138 .def_150)))
(let ((.def_178 (= b.delta__AT0 0.0 )))
(let ((.def_179 (and .def_67 .def_178)))
(let ((.def_180 (not .def_179)))
(let ((.def_182 (or .def_180 .def_181)))
(let ((.def_183 (or b.EVENT.1__AT0 .def_182)))
(let ((.def_209 (and .def_183 .def_208)))
(let ((.def_160 (= b.time__AT0 b.time__AT1)))
(let ((.def_172 (and .def_150 .def_160)))
(let ((.def_173 (and .def_138 .def_172)))
(let ((.def_174 (and .def_145 .def_173)))
(let ((.def_175 (or .def_49 .def_174)))
(let ((.def_163 (* (- 1.0) b.time__AT1)))
(let ((.def_166 (+ b.delta__AT0 .def_163)))
(let ((.def_167 (+ b.time__AT0 .def_166)))
(let ((.def_168 (= .def_167 0.0 )))
(let ((.def_169 (or .def_68 .def_168)))
(let ((.def_170 (or b.EVENT.1__AT0 .def_169)))
(let ((.def_161 (or .def_67 .def_160)))
(let ((.def_162 (or b.EVENT.1__AT0 .def_161)))
(let ((.def_171 (and .def_162 .def_170)))
(let ((.def_176 (and .def_171 .def_175)))
(let ((.def_156 (= .def_68 b.event_is_timed__AT1)))
(let ((.def_154 (= b.event_is_timed__AT0 .def_67)))
(let ((.def_157 (and .def_154 .def_156)))
(let ((.def_146 (and .def_138 .def_145)))
(let ((.def_89 (<= 0.0 b.speed_y__AT0)))
(let ((.def_90 (not .def_89)))
(let ((.def_88 (= b.y__AT0 0.0 )))
(let ((.def_91 (and .def_88 .def_90)))
(let ((.def_147 (or .def_91 .def_146)))
(let ((.def_113 (or b.counter.0__AT0 .def_112)))
(let ((.def_111 (or .def_32 b.counter.0__AT1)))
(let ((.def_114 (and .def_111 .def_113)))
(let ((.def_115 (and .def_100 .def_114)))
(let ((.def_116 (or b.counter.1__AT0 .def_115)))
(let ((.def_110 (or .def_30 b.counter.1__AT1)))
(let ((.def_117 (and .def_110 .def_116)))
(let ((.def_130 (and .def_107 .def_117)))
(let ((.def_131 (or b.counter.2__AT0 .def_130)))
(let ((.def_125 (and .def_32 .def_100)))
(let ((.def_126 (or b.counter.1__AT0 .def_125)))
(let ((.def_127 (and .def_110 .def_126)))
(let ((.def_128 (and b.counter.2__AT1 .def_127)))
(let ((.def_129 (or .def_35 .def_128)))
(let ((.def_132 (and .def_129 .def_131)))
(let ((.def_133 (and b.counter.3__AT1 .def_132)))
(let ((.def_134 (or b.counter.3__AT0 .def_133)))
(let ((.def_118 (and b.counter.2__AT1 .def_117)))
(let ((.def_119 (or b.counter.2__AT0 .def_118)))
(let ((.def_104 (or b.counter.1__AT0 b.counter.1__AT1)))
(let ((.def_102 (and .def_100 b.counter.0__AT1)))
(let ((.def_103 (or .def_30 .def_102)))
(let ((.def_105 (and .def_103 .def_104)))
(let ((.def_108 (and .def_105 .def_107)))
(let ((.def_109 (or .def_35 .def_108)))
(let ((.def_120 (and .def_109 .def_119)))
(let ((.def_123 (and .def_120 .def_122)))
(let ((.def_124 (or .def_38 .def_123)))
(let ((.def_135 (and .def_124 .def_134)))
(let ((.def_93 (* (- 1.0) b.speed_y__AT0)))
(let ((.def_96 (* .def_93 .def_95)))
(let ((.def_98 (= .def_96 b.speed_y__AT1)))
(let ((.def_136 (and .def_98 .def_135)))
(let ((.def_92 (not .def_91)))
(let ((.def_137 (or .def_92 .def_136)))
(let ((.def_148 (and .def_137 .def_147)))
(let ((.def_151 (and .def_148 .def_150)))
(let ((.def_152 (or .def_67 .def_151)))
(let ((.def_153 (or b.EVENT.1__AT0 .def_152)))
(let ((.def_158 (and .def_153 .def_157)))
(let ((.def_177 (and .def_158 .def_176)))
(let ((.def_210 (and .def_177 .def_209)))
(let ((.def_213 (and .def_210 .def_212)))
(let ((.def_216 (and .def_213 .def_215)))
(let ((.def_217 (and .def_49 .def_216)))
(let ((.def_234 (and .def_217 .def_233)))
(let ((.def_238 (and .def_234 .def_237)))
(let ((.def_75 (* 49.0 b.delta__AT0)))
(let ((.def_76 (* b.delta__AT0 .def_75)))
(let ((.def_78 (* (- 1.0) .def_76)))
(let ((.def_72 (* 10.0 b.delta__AT0)))
(let ((.def_73 (* b.speed_y__AT0 .def_72)))
(let ((.def_79 (+ .def_73 .def_78)))
(let ((.def_82 (+ .def_80 .def_79)))
(let ((.def_83 (<= 0.0 .def_82)))
(let ((.def_62 (<= 0.0 b.y__AT0)))
(let ((.def_84 (and .def_62 .def_83)))
(let ((.def_71 (not .def_70)))
(let ((.def_85 (or .def_71 .def_84)))
(let ((.def_86 (or .def_68 .def_85)))
(let ((.def_63 (and .def_61 .def_62)))
(let ((.def_52 (or .def_49 .def_51)))
(let ((.def_42 (or .def_30 .def_32)))
(let ((.def_46 (or b.counter.3__AT0 .def_42)))
(let ((.def_43 (or b.counter.2__AT0 .def_42)))
(let ((.def_41 (or .def_32 .def_35)))
(let ((.def_44 (and .def_41 .def_43)))
(let ((.def_45 (or .def_38 .def_44)))
(let ((.def_47 (and .def_45 .def_46)))
(let ((.def_53 (and .def_47 .def_52)))
(let ((.def_64 (and .def_53 .def_63)))
(let ((.def_39 (and .def_36 .def_38)))
(let ((.def_27 (= b.speed_y__AT0 0.0 )))
(let ((.def_24 (= b.y__AT0 10.0 )))
(let ((.def_19 (= b.time__AT0 0.0 )))
(let ((.def_21 (and .def_19 b.event_is_timed__AT0)))
(let ((.def_25 (and .def_21 .def_24)))
(let ((.def_28 (and .def_25 .def_27)))
(let ((.def_40 (and .def_28 .def_39)))
(let ((.def_65 (and .def_40 .def_64)))
(let ((.def_7 (and .def_4 .def_6)))
(let ((.def_14 (or .def_7 b.counter.3__AT4)))
(let ((.def_10 (and .def_7 .def_9)))
(let ((.def_13 (or .def_10 .def_12)))
(let ((.def_15 (and .def_13 .def_14)))
(let ((.def_16 (not .def_15)))
(let ((.def_66 (and .def_16 .def_65)))
(let ((.def_87 (and .def_66 .def_86)))
(let ((.def_239 (and .def_87 .def_238)))
(let ((.def_258 (and .def_239 .def_257)))
(let ((.def_406 (and .def_258 .def_405)))
(let ((.def_425 (and .def_406 .def_424)))
(let ((.def_573 (and .def_425 .def_572)))
(let ((.def_592 (and .def_573 .def_591)))
(let ((.def_732 (and .def_592 .def_731)))
(let ((.def_751 (and .def_732 .def_750)))
.def_751)))))))))))))))))))))))))))))))))))))))))))))))))))))))))))))))))))))))))))))))))))))))))))))))))))))))))))))))))))))))))))))))))))))))))))))))))))))))))))))))))))))))))))))))))))))))))))))))))))))))))))))))))))))))))))))))))))))))))))))))))))))))))))))))))))))))))))))))))))))))))))))))))))))))))))))))))))))))))))))))))))))))))))))))))))))))))))))))))))))))))))))))))))))))))))))))))))))))))))))))))))))))))))))))))))))))))))))))))))))))))))))))))))))))))))))))))))))))))))))))))))))))))))))))))))))))))))))))))))))))))))))))))))))))))))))))))))))))))))))))))))))))))))))))))))))))))))))))))))))))))))))))))))))))))))))))))))))))))))))))))))))))))))))
(check-sat)
(exit)
